multiobj/instances/uniform/Ter.6.3.1.00.2.in
6 3
0 555 650 868 523 851 
555 0 135 334 321 333 
650 135 0 169 904 551 
868 334 169 0 490 933 
523 321 904 490 0 256 
851 333 551 933 256 0 
0 93 571 938 86 902 
93 0 557 434 192 306 
571 557 0 581 960 629 
938 434 581 0 547 74 
86 192 960 547 0 114 
902 306 629 74 114 0 
0 93 571 938 86 902 
93 0 557 434 192 306 
571 557 0 581 960 629 
938 434 581 0 547 74 
86 192 960 547 0 114 
902 306 629 74 114 0 
0 93 571 938 86 902 
93 0 557 434 192 306 
571 557 0 581 960 629 
938 434 581 0 547 74 
86 192 960 547 0 114 
902 306 629 74 114 0 
