multiobj/solutions/Ter.6.3.1.00.2.out
1 3
3 0 1 4 5 2 
5445962 5445962 5445962 
